TCS_Benchmarks/redos_fix/snort3_output_distinct_3160_3159_8_0.txt
((.|\n|\r)*)([0-9A-Fa-f]+)
((.|\n|\r)*)(,\s*\-0[xX])([0-9A-Fa-f]+)